words_train/words_379_SAT.qaiger
aag 98 24 0 1 74
34
18
4
40
8
28
30
26
2
6
32
20
36
46
22
44
24
38
42
16
48
12
10
14
196
50 42 32
52 40 32
54 38 32
56 36 32
58 34 30
60 37 33
62 61 57
64 62 58
66 65 57
68 39 33
70 69 55
72 70 67
74 73 55
76 41 33
78 77 53
80 78 75
82 81 53
84 43 33
86 85 51
88 86 83
90 89 51
92 44 32
94 45 33
96 95 93
98 96 91
100 97 90
102 101 99
104 87 82
106 105 89
108 79 74
110 109 81
112 111 14
114 110 15
116 71 66
118 117 73
120 119 12
122 118 13
124 63 59
126 125 65
128 126 9
130 129 10
132 127 8
134 133 131
136 135 123
138 137 121
140 139 115
142 141 113
144 142 106
146 144 102
148 146 17
150 99 93
152 46 32
154 47 33
156 155 153
158 156 151
160 157 150
162 161 159
164 107 17
166 164 103
168 166 143
170 169 163
172 162 147
174 173 171
176 174 149
178 159 153
180 49 32
182 48 33
184 183 181
186 185 178
188 184 179
190 189 187
192 191 177
194 190 176
196 195 193
i0 2 y[0]
i1 2 z[0]
i2 1 x[1]
i3 2 y[3]
i4 1 x[3]
i5 2 z[5]
i6 2 z[6]
i7 2 z[4]
i8 1 x[0]
i9 1 x[2]
i10 2 z[7]
i11 2 z[1]
i12 2 y[1]
i13 2 y[6]
i14 2 z[2]
i15 2 y[5]
i16 2 z[3]
i17 2 y[2]
i18 2 y[4]
i19 1 x[7]
i20 2 y[7]
i21 1 x[5]
i22 1 x[4]
i23 1 x[6]
o0 bv[0]
c
simplified
  >
    or
      add
        >> 6
          2 z
        2 y
      1
    >> 3
      1 x
