words_train/words_379_SAT.qaiger.qdimacs
p cnf 98 223
a 1 2 3 4 5 6 7 8 0
e 9 10 11 12 13 14 15 16 17 18 19 20 21 22 23 24 25 26 27 28 29 30 31 32 33 34 35 36 37 38 39 40 41 42 43 44 45 46 47 48 49 50 51 52 53 54 55 56 57 58 59 60 61 62 63 64 65 66 67 68 69 70 71 72 73 74 75 76 77 78 79 80 81 82 83 84 85 86 87 88 89 90 91 92 93 94 95 96 97 98 0
-21 -16 25 0
21 -25 0
16 -25 0
-20 -16 26 0
20 -26 0
16 -26 0
-19 -16 27 0
19 -27 0
16 -27 0
-18 -16 28 0
18 -28 0
16 -28 0
-17 -15 29 0
17 -29 0
15 -29 0
18 16 30 0
-18 -30 0
-16 -30 0
30 28 31 0
-30 -31 0
-28 -31 0
-31 -29 32 0
31 -32 0
29 -32 0
32 28 33 0
-32 -33 0
-28 -33 0
19 16 34 0
-19 -34 0
-16 -34 0
34 27 35 0
-34 -35 0
-27 -35 0
-35 33 36 0
35 -36 0
-33 -36 0
36 27 37 0
-36 -37 0
-27 -37 0
20 16 38 0
-20 -38 0
-16 -38 0
38 26 39 0
-38 -39 0
-26 -39 0
-39 37 40 0
39 -40 0
-37 -40 0
40 26 41 0
-40 -41 0
-26 -41 0
21 16 42 0
-21 -42 0
-16 -42 0
42 25 43 0
-42 -43 0
-25 -43 0
-43 41 44 0
43 -44 0
-41 -44 0
44 25 45 0
-44 -45 0
-25 -45 0
-22 -16 46 0
22 -46 0
16 -46 0
22 16 47 0
-22 -47 0
-16 -47 0
47 46 48 0
-47 -48 0
-46 -48 0
-48 45 49 0
48 -49 0
-45 -49 0
48 -45 50 0
-48 -50 0
45 -50 0
50 49 51 0
-50 -51 0
-49 -51 0
43 -41 52 0
-43 -52 0
41 -52 0
52 44 53 0
-52 -53 0
-44 -53 0
39 -37 54 0
-39 -54 0
37 -54 0
54 40 55 0
-54 -55 0
-40 -55 0
55 -7 56 0
-55 -56 0
7 -56 0
-55 7 57 0
55 -57 0
-7 -57 0
35 -33 58 0
-35 -58 0
33 -58 0
58 36 59 0
-58 -59 0
-36 -59 0
59 -6 60 0
-59 -60 0
6 -60 0
-59 6 61 0
59 -61 0
-6 -61 0
31 29 62 0
-31 -62 0
-29 -62 0
62 32 63 0
-62 -63 0
-32 -63 0
-63 4 64 0
63 -64 0
-4 -64 0
64 -5 65 0
-64 -65 0
5 -65 0
63 -4 66 0
-63 -66 0
4 -66 0
66 65 67 0
-66 -67 0
-65 -67 0
67 61 68 0
-67 -68 0
-61 -68 0
68 60 69 0
-68 -69 0
-60 -69 0
69 57 70 0
-69 -70 0
-57 -70 0
70 56 71 0
-70 -71 0
-56 -71 0
-71 -53 72 0
71 -72 0
53 -72 0
-72 -51 73 0
72 -73 0
51 -73 0
-73 8 74 0
73 -74 0
-8 -74 0
49 46 75 0
-49 -75 0
-46 -75 0
-23 -16 76 0
23 -76 0
16 -76 0
23 16 77 0
-23 -77 0
-16 -77 0
77 76 78 0
-77 -78 0
-76 -78 0
-78 75 79 0
78 -79 0
-75 -79 0
78 -75 80 0
-78 -80 0
75 -80 0
80 79 81 0
-80 -81 0
-79 -81 0
53 8 82 0
-53 -82 0
-8 -82 0
-82 51 83 0
82 -83 0
-51 -83 0
-83 71 84 0
83 -84 0
-71 -84 0
84 81 85 0
-84 -85 0
-81 -85 0
-81 73 86 0
81 -86 0
-73 -86 0
86 85 87 0
-86 -87 0
-85 -87 0
-87 74 88 0
87 -88 0
-74 -88 0
79 76 89 0
-79 -89 0
-76 -89 0
24 -16 90 0
-24 -90 0
16 -90 0
-24 16 91 0
24 -91 0
-16 -91 0
91 90 92 0
-91 -92 0
-90 -92 0
92 -89 93 0
-92 -93 0
89 -93 0
-92 89 94 0
92 -94 0
-89 -94 0
94 93 95 0
-94 -95 0
-93 -95 0
95 88 96 0
-95 -96 0
-88 -96 0
-95 -88 97 0
95 -97 0
88 -97 0
97 96 98 0
-97 -98 0
-96 -98 0
98 0
